c Sudoku solution
p cnf 729 0
155 0
162 0
176 0
221 0
267 0
336 0
372 0
391 0
141 0
463 0
511 0
534 0
575 0
617 0
632 0
212 0
648 0
659 0
566 0
728 0
731 0
749 0
369 0
793 0
833 0
865 0
764 0
777 0
445 0
625 0
523 0
661 0
454 0
968 0
888 0
598 0
589 0
471 0
851 0
981 0
278 0
358 0
673 0
922 0
696 0
684 0
786 0
892 0
995 0
752 0
715 0
235 0
283 0
187 0
385 0
113 0
314 0
327 0
129 0
138 0
194 0
299 0
256 0
343 0
244 0
824 0
937 0
879 0
974 0
847 0
816 0
919 0
426 0
418 0
439 0
542 0
557 0
946 0
953 0
482 0
497 0
